{"lblp_lower": [258.44552174037494, 277.2906608390933, 295.87866671117564, 303.96205082346455, 306.91046483807526, 307.85895474963826, 308.4284857217268, 308.58721380476516, 308.64312601327], "cuttingPlaneBendInfo": [{"tot_cut_value": 0, "TOT_gen_cut": 0, "tot_time_opt": 0, "max_time_opt": 0}, {"tot_cut_value": 0, "TOT_gen_cut": 0, "tot_time_opt": 0, "max_time_opt": 0}, {"tot_cut_value": 0, "TOT_gen_cut": 0, "tot_time_opt": 0, "max_time_opt": 0}, {"tot_cut_value": 0, "TOT_gen_cut": 0, "tot_time_opt": 0, "max_time_opt": 0}, {"tot_cut_value": 0, "TOT_gen_cut": 0, "tot_time_opt": 0, "max_time_opt": 0}, {"tot_cut_value": 0, "TOT_gen_cut": 0, "tot_time_opt": 0, "max_time_opt": 0}, {"tot_cut_value": 0, "TOT_gen_cut": 0, "tot_time_opt": 0, "max_time_opt": 0}, {"tot_cut_value": 0, "TOT_gen_cut": 0, "tot_time_opt": 0, "max_time_opt": 0}, {"tot_cut_value": 0, "TOT_gen_cut": 0, "tot_time_opt": 0, "max_time_opt": 0}], "time_compress": [0, 0, 0, 0, 0, 0, 0, 0], "ub_lp": [623.9091568250483, 457.25000000000017, 393.9717102205238, 362.8203212631944, 319.2911286405974, 308.71065905434136, 308.71065905434136, 308.7106590543414, 308.7106590543414], "prob_sizes_at_start": [{"ngGraph": 52}, {"ngGraph": 126}, {"ngGraph": 169}, {"ngGraph": 194}, {"ngGraph": 229}, {"ngGraph": 245}, {"ngGraph": 235}, {"ngGraph": 237}, {"ngGraph": 224}], "prob_sizes_after_compress": [{"ngGraph": 42}, {"ngGraph": 55}, {"ngGraph": 73}, {"ngGraph": 81}, {"ngGraph": 95}, {"ngGraph": 88}, {"ngGraph": 98}, {"ngGraph": 94}, {"ngGraph": 94}], "prob_sizes_after_split": [{"ngGraph": 126}, {"ngGraph": 169}, {"ngGraph": 194}, {"ngGraph": 229}, {"ngGraph": 245}, {"ngGraph": 235}, {"ngGraph": 237}, {"ngGraph": 224}, {"ngGraph": 224}], "did_compress": [true, true, true, true, true, true, true, true, true], "lp_time_project": [0.01608896255493164, 0.009099960327148438, 0.009942054748535156, 0.008090019226074219, 0.007603168487548828, 0.007778167724609375, 0.006886005401611328, 0.00743412971496582, 0.0075838565826416016], "lp_time_LB": [0.11864590644836426, 0.11834907531738281, 0.12581086158752441, 0.11087679862976074, 0.11810803413391113, 0.13071179389953613, 0.10245394706726074, 0.16286206245422363, 0.11282992362976074], "ilp_time": [], "history_of_graphs_by_iter": [], "ROOT_LP_PRIOR_ADDING_CUTS": 308.64312601327, "OUR_ilp_objective": 362.4000000000001, "OUR_MIP_Lower_Bound": 362.4000000000001, "OUR_ilp_time": 15.407762050628662, "OUR_gurobi_MILP_str": "Gurobi Optimizer version 12.0.1 build v12.0.1rc0 (mac64[arm] - Darwin 24.5.0 24F74)\n\nCPU model: Apple M1\nThread count: 8 physical cores, 8 logical processors, using up to 8 threads\n\nNon-default parameters:\nTimeLimit  1000\n\nWLS license 2690165 - registered to Optym\nOptimize a model with 7759 rows, 6611 columns and 35317 nonzeros\nModel fingerprint: 0x69231b0f\nVariable types: 4716 continuous, 1895 integer (1895 binary)\nCoefficient statistics:\n  Matrix range     [6e-01, 7e+02]\n  Objective range  [1e+00, 6e+01]\n  Bounds range     [1e+00, 1e+03]\n  RHS range        [1e+00, 6e+02]\nPresolve removed 3932 rows and 3720 columns\nPresolve time: 0.08s\nPresolved: 3827 rows, 2891 columns, 34912 nonzeros\nVariable types: 1026 continuous, 1865 integer (1855 binary)\nFound heuristic solution: objective 2407.8000000\nFound heuristic solution: objective 2378.5000000\nFound heuristic solution: objective 2369.4000000\n\nRoot relaxation: objective 3.086431e+02, 847 iterations, 0.02 seconds (0.03 work units)\n\n    Nodes    |    Current Node    |     Objective Bounds      |     Work\n Expl Unexpl |  Obj  Depth IntInf | Incumbent    BestBd   Gap | It/Node Time\n\n     0     0  308.64313    0   56 2369.40000  308.64313  87.0%     -    0s\nH    0     0                     985.2000000  308.64313  68.7%     -    0s\nH    0     0                     671.1000000  308.64313  54.0%     -    0s\nH    0     0                     641.3000000  308.64313  51.9%     -    0s\n     0     0  323.42599    0   79  641.30000  323.42599  49.6%     -    0s\nH    0     0                     592.0000000  323.77599  45.3%     -    0s\nH    0     0                     591.8000000  323.77599  45.3%     -    0s\n     0     0  323.77599    0   79  591.80000  323.77599  45.3%     -    0s\n     0     0  323.77599    0   83  591.80000  323.77599  45.3%     -    0s\n     0     0  323.77599    0   83  591.80000  323.77599  45.3%     -    0s\n     0     0  332.10089    0   93  591.80000  332.10089  43.9%     -    0s\nH    0     0                     580.1000000  332.10215  42.8%     -    0s\n     0     0  332.27181    0  104  580.10000  332.27181  42.7%     -    0s\n     0     0  332.27181    0  104  580.10000  332.27181  42.7%     -    0s\nH    0     0                     576.6000000  332.27181  42.4%     -    0s\nH    0     0                     556.6000000  333.71683  40.0%     -    0s\n     0     0  333.71683    0   85  556.60000  333.71683  40.0%     -    0s\n     0     0  333.71766    0   87  556.60000  333.71766  40.0%     -    0s\nH    0     0                     554.5000000  333.71766  39.8%     -    0s\nH    0     0                     547.7000000  333.71766  39.1%     -    0s\n     0     0  334.11923    0   86  547.70000  334.11923  39.0%     -    0s\n     0     0  334.15256    0   88  547.70000  334.15256  39.0%     -    0s\n     0     0  334.15256    0   88  547.70000  334.15256  39.0%     -    0s\nH    0     0                     538.7000000  334.15256  38.0%     -    0s\nH    0     0                     526.6000000  334.15256  36.5%     -    0s\nH    0     0                     521.4000000  334.15256  35.9%     -    0s\nH    0     0                     496.0000000  334.15256  32.6%     -    0s\nH    0     0                     494.1000000  334.15256  32.4%     -    0s\n     0     0  334.15256    0   88  494.10000  334.15256  32.4%     -    0s\nH    0     0                     459.8000000  334.15256  27.3%     -    0s\n     0     0  334.15256    0   88  459.80000  334.15256  27.3%     -    0s\n     0     0  334.15256    0   88  459.80000  334.15256  27.3%     -    0s\nH    0     0                     458.6000000  334.15256  27.1%     -    0s\nH    0     0                     458.2000000  334.15256  27.1%     -    0s\nH    0     0                     454.5000000  334.15256  26.5%     -    0s\nH    0     0                     426.2000000  334.15256  21.6%     -    0s\nH    0     0                     418.9000000  334.15256  20.2%     -    0s\nH    0     0                     418.1000000  334.15256  20.1%     -    0s\nH    0     0                     416.5000000  334.15256  19.8%     -    0s\nH    0     0                     411.2000000  334.15256  18.7%     -    0s\n     0     0  334.18831    0   88  411.20000  334.18831  18.7%     -    1s\n     0     2  334.19395    0   88  411.20000  334.19395  18.7%     -    1s\nH  144   162                     395.0000000  336.35000  14.8%  47.2    1s\nH  744   699                     385.4000000  336.83699  12.6%  35.1    1s\nH 1252   952                     377.4000000  340.46250  9.79%  35.2    2s\nH 1266   898                     374.8000000  340.46250  9.16%  35.1    2s\nH 1268   852                     373.0000000  340.46250  8.72%  35.1    2s\nH 1822  1149                     371.5000000  342.45713  7.82%  35.5    3s\nH 1824  1092                     362.4000000  342.45713  5.50%  35.4    3s\n  1832  1097  362.40000   58  107  362.40000  342.45713  5.50%  35.3    5s\n  2031  1153  350.91894   36   46  362.40000  345.17560  4.75%  41.4   10s\n  5909   289  360.94977   49   94  362.40000  357.39157  1.38%  50.3   15s\n\nCutting planes:\n  Learned: 3\n  Gomory: 10\n  Cover: 24\n  Implied bound: 54\n  Projected implied bound: 12\n  Clique: 2\n  MIR: 14\n  Mixing: 12\n  StrongCG: 3\n  Flow cover: 55\n  GUB cover: 5\n  Inf proof: 4\n  Zero half: 8\n  RLT: 16\n  Relax-and-lift: 40\n\nExplored 6654 nodes (330710 simplex iterations) in 15.41 seconds (21.27 work units)\nThread count was 8 (of 8 available processors)\n\nSolution count 10: 362.4 371.5 373 ... 418.1\n\nOptimal solution found (tolerance 1.00e-04)\nBest objective 3.624000000000e+02, best bound 3.624000000000e+02, gap 0.0000%\n", "jy_opt": {"ParetoEps": 1e-05, "turn_off_time_windows": false, "deactivate_time_graph": false, "deactivate_demand_graph": false, "epsilon": 0.0001, "weight_slack_projector": 1e-05, "weight_compress": 0.01, "num_cust_use": 50, "dem_step_sz": 1, "time_step_sz": 25, "use_compression": 1, "max_iterations_loop_compress_project": 100, "do_round_dist_times": 1, "my_shift_bet_time_win": 0.0001, "num_terms_per_bin_init_construct": 10, "allOneBig_init": 0, "min_inc_2_compress": 0.1, "save_graph_each_iter": 0, "use_Xpress": 0, "use_ineq": false, "xpress_file_loc": "/Users/julian/Documents/FICO_Xpress_Config/xpauth.xpr", "run_baseline": 0, "verbose": 0, "use_NG_graph": false, "num_NG": 5, "in_demo_mode": 0, "threshold_split": 0.01, "offset_cost_edge_project": 0, "use_classic_compress": 1, "use_classic_compress_last": 0, "num_thresh_split_projector": 10, "lplb_solver": 4, "compresss_solver": 0, "proj_solver": 4, "use_julians_custom_lp_solver": 0, "do_ilp": 1, "roundingDiscretization_num_digits_keep": 3, "doExrtraRemovalEdgesLB": 0, "use_gurobi": 1, "max_ILP_time": 1000, "use_fancy_ng_graph": 1, "use_dem_graph": false, "use_time_graph": false, "num_multiplys_demand": 0, "DEBUG_ALLOW_DUMB_EDGES": 0, "add_all_ng_split_at_end": 0, "do_split_based_init": 1, "think_compress": 0, "use_delta_in_milp": [1], "use_delta_in_lp": 1, "turn_off_non_active_fg_project": 0, "use_new_valid_ineq": 0, "digit_mult_use": 10, "use_branch_on_g": true, "LAB_MP_ON": 0, "LAB_MP_neigh_use_power": 10, "LAB_MP_num_ineq_use": 10, "do_remove_actions_from_incumbant": 1, "ub_use_remove": 362.4, "use_packing_in_construction": 1, "maxVarsAdd_in_ITER": 10, "use_ng_size_init": 0, "do_presolve": 0, "use_diving_ineq": 0, "BEND_MIN_LP_OBJECTIVE_CUT": 0.1, "BEND_USE_RAND": 0, "BEND_MAX_SIZE_CHOOSE_K": 260, "BEND_VAL_STOP_ADDING_CUTS": 100000000, "BEND_MY_SIZES_USE": [9], "NUMERICAL_BEND_OFFSET_COST_CUT": 0.0001, "NUMERICAL_BEND_EPSILON_MULT_PARETO_OBJ": 0.001, "NO_PARETO_NUMERICAL_BEND_OFFSET_COST_CUT": 0, "NO_PARETO_BEND_VAL_STOP_ADDING_CUTS": 1, "NO_PARETO_EPSILON_MAX_VAL_CON": 0.01, "BENDERS_NEIGH_SZ_USE": 9, "Actions_of_given_sol": [], "all_vars_binary": 0, "use_ng": 1, "restore_after_each_step": 1, "compress_solver": 1, "DEBUG_NG_turn_off_CLEAN": false, "max_nodes_split": Infinity}, "output_ilp_solution": {"act_0_51": 1, "act_1_0": 1, "act_2_6": 1, "act_3_1": 1, "act_4_2": 1, "act_5_3": 1, "act_6_7": 1, "act_7_9": 1, "act_8_5": 1, "act_9_10": 1, "act_10_8": 1, "act_11_51": 1, "act_12_16": 1, "act_13_11": 1, "act_14_15": 1, "act_15_13": 1, "act_16_17": 1, "act_17_18": 1, "act_18_14": 1, "act_19_23": 1, "act_20_51": 1, "act_21_20": 1, "act_22_21": 1, "act_23_24": 1, "act_24_26": 1, "act_25_22": 1, "act_26_28": 1, "act_27_25": 1, "act_28_29": 1, "act_29_27": 1, "act_30_34": 1, "act_31_32": 1, "act_32_30": 1, "act_33_51": 1, "act_34_36": 1, "act_35_33": 1, "act_36_37": 1, "act_37_38": 1, "act_38_35": 1, "act_39_43": 1, "act_40_39": 1, "act_41_40": 1, "act_42_41": 1, "act_43_45": 1, "act_44_47": 1, "act_45_44": 1, "act_46_51": 1, "act_47_49": 1, "act_48_46": 1, "act_49_48": 1, "act_50_4": 1, "act_50_12": 1, "act_50_19": 1, "act_50_31": 1, "act_50_42": 1}, "Actions_of_given_sol": "none just used source and sink terms", "actions_used": ["act_0_51", "act_1_0", "act_2_6", "act_3_1", "act_4_2", "act_5_3", "act_6_7", "act_7_9", "act_8_5", "act_9_10", "act_10_8", "act_11_51", "act_12_16", "act_13_11", "act_14_15", "act_15_13", "act_16_17", "act_17_18", "act_18_14", "act_19_23", "act_20_51", "act_21_20", "act_22_21", "act_23_24", "act_24_26", "act_25_22", "act_26_28", "act_27_25", "act_28_29", "act_29_27", "act_30_34", "act_31_32", "act_32_30", "act_33_51", "act_34_36", "act_35_33", "act_36_37", "act_37_38", "act_38_35", "act_39_43", "act_40_39", "act_41_40", "act_42_41", "act_43_45", "act_44_47", "act_45_44", "act_46_51", "act_47_49", "act_48_46", "act_49_48", "act_50_4", "act_50_12", "act_50_19", "act_50_31", "act_50_42"], "init_default_solution_is_empty": false, "objective_of_initial_sol": 2407.7999999999984, "my_paths": "[[50, 4, 2, 6, 7, 9, 10, 8, 5, 3, 1, 0, 51], [50, 12, 16, 17, 18, 14, 15, 13, 11, 51], [50, 19, 23, 24, 26, 28, 29, 27, 25, 22, 21, 20, 51], [50, 31, 32, 30, 34, 36, 37, 38, 35, 33, 51], [50, 42, 41, 40, 39, 43, 45, 44, 47, 49, 48, 46, 51]]"}